(set-info :total-time 1.57)
; Start decls (13)
(declare-fun b13 () (_ FloatingPoint 11 53))
(declare-fun b14 () (_ FloatingPoint 11 53))
(declare-fun b16 () (_ FloatingPoint 11 53))
(declare-fun b20 () (_ FloatingPoint 11 53))
(declare-fun b24 () (_ FloatingPoint 11 53))
(declare-fun b28 () (_ FloatingPoint 11 53))
(declare-fun b32 () (_ FloatingPoint 11 53))
(declare-fun b51 () (_ FloatingPoint 11 53))
(declare-fun b54 () (_ FloatingPoint 11 53))
(declare-fun b58 () (_ FloatingPoint 11 53))
(declare-fun b61 () (_ FloatingPoint 11 53))
(declare-fun b68 () (_ FloatingPoint 11 53))
(declare-fun b71 () (_ FloatingPoint 11 53))
; End decls
; Start constraints (12)
(assert (not (fp.lt b24 (fp.add roundNearestTiesToEven b13 b28))))
(assert (fp.leq b61 b13))
(assert (fp.leq b13 b58))
(assert (fp.leq b54 b14))
(assert (fp.leq b14 b51))
(assert (fp.leq b61 b16))
(assert (fp.leq b16 b58))
(assert (fp.leq b71 b32))
(assert (fp.leq b32 b68))
(assert (not (fp.lt b20
            (fp.mul roundNearestTiesToEven
                    (fp.add roundNearestTiesToEven b14 b16)
                    (fp.add roundNearestTiesToEven b13 b14)))))
(assert (fp.leq b13 b24))
(assert (fp.lt b24 (fp.add roundNearestTiesToEven b13 b32)))
; End constraints
(check-sat)
